NAME : local_5
TYPE : ATSP
DIMENSION : 17
EDGE_WEIGHT_TYPE : EXPLICIT
EDGE_WEIGHT_FORMAT : FULL_MATRIX
EDGE_WEIGHT_SECTION
0 10000000 10000000 10000000 10000000 812 10000000 982 734 10000000 1051 10000000 10000000 286 225 10000000 10000000 
0 0 194 554 443 808 989 870 744 10000000 10000000 909 726 10000000 10000000 302 984 
0 194 0 668 269 624 10000000 938 593 10000000 10000000 974 570 10000000 10000000 344 957 
0 554 668 0 857 10000000 10000000 412 10000000 10000000 10000000 10000000 10000000 10000000 10000000 733 10000000 
0 443 269 857 0 515 10000000 10000000 597 10000000 10000000 10000000 310 10000000 10000000 587 10000000 
0 808 624 10000000 515 0 10000000 10000000 297 10000000 10000000 10000000 605 10000000 803 786 10000000 
0 989 10000000 10000000 10000000 10000000 0 10000000 10000000 290 701 213 10000000 10000000 10000000 747 680 
0 859 947 412 10000000 10000000 10000000 0 10000000 10000000 10000000 10000000 10000000 974 10000000 1000 10000000 
0 744 593 10000000 597 297 10000000 10000000 0 10000000 10000000 969 796 10000000 700 614 710 
0 10000000 10000000 10000000 10000000 10000000 290 10000000 10000000 0 882 150 10000000 10000000 10000000 752 471 
0 10000000 10000000 10000000 10000000 10000000 701 10000000 10000000 882 0 821 10000000 10000000 1081 10000000 10000000 
0 909 974 10000000 10000000 10000000 213 10000000 969 150 821 0 10000000 10000000 10000000 633 482 
0 726 570 10000000 310 605 10000000 10000000 796 10000000 10000000 10000000 0 10000000 10000000 897 10000000 
0 10000000 10000000 10000000 10000000 10000000 10000000 961 10000000 10000000 10000000 10000000 10000000 0 427 10000000 10000000 
0 10000000 10000000 10000000 10000000 803 10000000 10000000 700 10000000 1114 10000000 10000000 427 0 10000000 1057 
0 302 344 733 587 786 747 997 614 752 10000000 633 897 10000000 10000000 0 687 
0 10000000 10000000 10000000 10000000 10000000 10000000 10000000 10000000 10000000 10000000 10000000 10000000 10000000 10000000 10000000 0 
EOF